12
1 0 18
2 0 15
2 1 34
3 0 42
3 1 28
3 2 34
4 0 14
4 1 21
4 2 6
4 3 23
5 0 53
5 1 35
5 2 9
5 3 53
5 4 21
6 0 44
6 1 30
6 2 5
6 3 53
6 4 26
6 5 19
7 0 50
7 1 37
7 2 31
7 3 30
7 4 12
7 5 12
7 6 25
8 0 42
8 1 32
8 2 6
8 3 51
8 4 20
8 5 44
8 6 9
8 7 26
9 0 21
9 1 8
9 2 27
9 3 9
9 4 20
9 5 7
9 6 46
9 7 49
9 8 29
10 0 48
10 1 7
10 2 15
10 3 13
10 4 10
10 5 50
10 6 20
10 7 34
10 8 43
10 9 26
11 0 15
11 1 45
11 2 3
11 3 44
11 4 38
11 5 4
11 6 52
11 7 39
11 8 37
11 9 34
11 10 13
